# data of the hybrid manufacturing systems including platform and Srategies #



data;



set N:= 1 2 3 4 5 6 7 8 9 10 11 12 13 14 15 16 17 18 19 20 21;
set M:= 1 2 3 4 5 6 7 8;
 
set S := 1 2 3 4 5 6 7 8 9 10 11 12 13 14 15 16 17 18 19 20 21 22 23 24 25 26 27 28 29 30 31 32 33 34 35 36 37 38 39 40 41 42 43 44 45 46 47 48 49 50 51 52 53 54 55 56 57 58 59 60 61 62 63 64 ;

set I := 1 2;

set J[1] := 1 2 3 4 ;
set J[2] := 1 2 3 4 ;
set J[3] := 1 2 3 4 ;
set J[4] := 1 2 3 4 ;
set J[5] := 1 2 3 4 ;
set J[6] := 1 2 3 4 ;
set J[7] := 1 2 3 4 ;
set J[8] := 1 2 3 4 ;


set G := 1 2 3 4 ;
set GG := 1 2 3 ;

set K := 1 2 3 4 5 6 7 8 9 10 11 12 13 14 15 16 17 18 19 20 21 ;
set KK := 1 2 3 4 5 6 7 8 9 10 11 12 13 14 15 16 17 18 19 20 ; 
set KKK := 1 2 3 4 5 6 7 8 9 10 11 12 13 15 16 17 18 19 ;

set Q[1] := 1 2 3 4 5 6 7 8 9;
set Q[2] := 1 2 3 4 5 6 7;
set Q[3] := 1 2 3 4 5 6 7;
set Q[4] := 1 2 3 4 5 6 7 8 9;
set Q[5] := 1 2 3 4 5 6 7;
set Q[6] := 1 2 3 4 5 6 7;
set Q[7] := 1 2 3 4 5 6 7 8 9;
set Q[8] := 1 2 3 4 5 6 7;


set QQ[1] := 1 2 3 4 5 6 7 8;
set QQ[2] := 1 2 3 4 5;
set QQ[3] := 1 2 3 4 5 6;
set QQ[4] := 1 2 3 4 5 6 7 8;
set QQ[5] := 1 2 3 4 5;
set QQ[6] := 1 2 3 4 5 6;
set QQ[7] := 1 2 3 4 5 6 7 8;
set QQ[8] := 1 2 3 4 5;


set QQQ[1] := 1 2 3 4 5 6 7;
set QQQ[2] := 1 2 3 4;
set QQQ[3] := 1 2 3 4 5;
set QQQ[4] := 1 2 3 4 5 6 7;
set QQQ[5] := 1 2 3 4;
set QQQ[6] := 1 2 3 4 5;
set QQQ[7] := 1 2 3 4 5 6 7;
set QQQ[8] := 1 2 3 4;


set P := 1;

set T:= 1 2;
 

# feature type data

param D:= 
1	100
2	250
3	175
4	300
5	250
6	175
7	100
8	300; 

param B :=
1	0
2	0
3	0
4	1
5	1
6	1
7	1
8	1
9	1
10	1
11	1
12	1
13	1
14	1
15	1
16	1
17	1
18	1
19	1
20	1
21	1;


# features belonging to variants

param FV:	1	2	3	4	5	6	7	8:=
1	1	1	1	1	1	1	1	0
2	1	1	1	0	1	1	1	1
3	1	1	1	1	0	1	1	1
4	1	1	1	1	1	0	1	1
5	1	1	1	1	1	1	1	0
6	1	1	1	1	1	1	1	1
7	1	1	1	1	1	1	1	1
8	1	1	1	1	1	1	1	1
9	1	1	1	1	1	1	1	1
10	1	1	0	1	0	0	0	0
11	1	1	0	1	0	0	0	0
12	1	1	0	1	0	0	0	0
13	1	0	1	0	1	1	1	1
14	1	0	1	0	1	1	0	1
15	1	0	1	0	1	0	0	1
16	1	0	1	0	1	0	0	0
17	0	0	1	1	1	0	1	0
18	0	0	1	1	1	1	1	1
19	1	1	0	0	0	0	0	0
20	1	1	0	0	0	0	1	0
21	1	1	0	0	0	0	0	0;



param FH:	1	2	3	4	5	6	7	8	9	10	11	12	13	14	15	16	17	18	19	20	21	22	23	24	25	26	27	28	29	30	31	32	33	34	35	36	37	38	39	40	41	42	43	44	45	46	47	48	49	50	51	52	53	54	55	56	57	58	59	60	61	62	63	64 :=
1	1	1	1	1	1	1	1	1	1	1	1	1	1	1	1	1	1	1	1	1	1	1	1	1	1	1	1	1	1	1	1	1	1	1	1	1	1	1	1	1	1	1	1	1	1	1	1	1	1	1	1	1	1	1	1	1	1	1	1	1	1	1	1	1
2	1	1	1	1	1	1	1	1	1	1	1	1	1	1	1	1	1	1	1	1	1	1	1	1	1	1	1	1	1	1	1	1	1	1	1	1	1	1	1	1	1	1	1	1	1	1	1	1	1	1	1	1	1	1	1	1	1	1	1	1	1	1	1	1
3	1	1	1	1	1	1	1	1	1	1	1	1	1	1	1	1	1	1	1	1	1	1	1	1	1	1	1	1	1	1	1	1	1	1	1	1	1	1	1	1	1	1	1	1	1	1	1	1	1	1	1	1	1	1	1	1	1	1	1	1	1	1	1	1
4	1	1	1	1	1	1	1	1	1	1	1	1	1	1	1	1	1	1	1	1	1	1	1	1	1	1	1	1	1	1	1	1	0	0	0	0	0	0	0	0	0	0	0	0	0	0	0	0	0	0	0	0	0	0	0	0	0	0	0	0	0	0	0	0
5	0	0	0	0	0	0	0	0	0	0	0	0	0	0	0	0	0	0	0	0	0	0	0	0	0	0	0	0	0	0	0	0	1	1	1	1	1	1	1	1	1	1	1	1	1	1	1	1	1	1	1	1	1	1	1	1	1	1	1	1	1	1	1	1
6	0	0	0	0	0	0	0	0	0	0	0	0	0	0	0	0	0	0	0	0	0	0	0	0	0	0	0	0	0	0	0	0	1	1	1	1	1	1	1	1	1	1	1	1	1	1	1	1	1	1	1	1	1	1	1	1	1	1	1	1	1	1	1	1
7	1	1	1	1	1	1	1	1	1	1	1	1	1	1	1	1	0	0	0	0	0	0	0	0	0	0	0	0	0	0	0	0	1	1	1	1	1	1	1	1	1	1	1	1	1	1	1	1	0	0	0	0	0	0	0	0	0	0	0	0	0	0	0	0
8	0	0	0	0	0	0	0	0	0	0	0	0	0	0	0	0	1	1	1	1	1	1	1	1	1	1	1	1	1	1	1	1	0	0	0	0	0	0	0	0	0	0	0	0	0	0	0	0	1	1	1	1	1	1	1	1	1	1	1	1	1	1	1	1
9	0	0	0	0	0	0	0	0	0	0	0	0	0	0	0	0	1	1	1	1	1	1	1	1	1	1	1	1	1	1	1	1	0	0	0	0	0	0	0	0	0	0	0	0	0	0	0	0	1	1	1	1	1	1	1	1	1	1	1	1	1	1	1	1
10	1	1	1	1	1	1	1	1	0	0	0	0	0	0	0	0	1	1	1	1	1	1	1	1	0	0	0	0	0	0	0	0	1	1	1	1	1	1	1	1	0	0	0	0	0	0	0	0	1	1	1	1	1	1	1	1	0	0	0	0	0	0	0	0
11	0	0	0	0	0	0	0	0	1	1	1	1	1	1	1	1	0	0	0	0	0	0	0	0	1	1	1	1	1	1	1	1	0	0	0	0	0	0	0	0	1	1	1	1	1	1	1	1	0	0	0	0	0	0	0	0	1	1	1	1	1	1	1	1
12	0	0	0	0	0	0	0	0	1	1	1	1	1	1	1	1	0	0	0	0	0	0	0	0	1	1	1	1	1	1	1	1	0	0	0	0	0	0	0	0	1	1	1	1	1	1	1	1	0	0	0	0	0	0	0	0	1	1	1	1	1	1	1	1
13	1	1	1	1	0	0	0	0	1	1	1	1	0	0	0	0	1	1	1	1	0	0	0	0	1	1	1	1	0	0	0	0	1	1	1	1	0	0	0	0	1	1	1	1	0	0	0	0	1	1	1	1	0	0	0	0	1	1	1	1	0	0	0	0
14	0	0	0	0	1	1	1	1	0	0	0	0	1	1	1	1	0	0	0	0	1	1	1	1	0	0	0	0	1	1	1	1	0	0	0	0	1	1	1	1	0	0	0	0	1	1	1	1	0	0	0	0	1	1	1	1	0	0	0	0	1	1	1	1
15	0	0	0	0	1	1	1	1	0	0	0	0	1	1	1	1	0	0	0	0	1	1	1	1	0	0	0	0	1	1	1	1	0	0	0	0	1	1	1	1	0	0	0	0	1	1	1	1	0	0	0	0	1	1	1	1	0	0	0	0	1	1	1	1
16	1	1	0	0	1	1	0	0	1	1	0	0	1	1	0	0	1	1	0	0	1	1	0	0	1	1	0	0	1	1	0	0	1	1	0	0	1	1	0	0	1	1	0	0	1	1	0	0	1	1	0	0	1	1	0	0	1	1	0	0	1	1	0	0
17	0	0	1	1	0	0	1	1	0	0	1	1	0	0	1	1	0	0	1	1	0	0	1	1	0	0	1	1	0	0	1	1	0	0	1	1	0	0	1	1	0	0	1	1	0	0	1	1	0	0	1	1	0	0	1	1	0	0	1	1	0	0	1	1
18	0	0	1	1	0	0	1	1	0	0	1	1	0	0	1	1	0	0	1	1	0	0	1	1	0	0	1	1	0	0	1	1	0	0	1	1	0	0	1	1	0	0	1	1	0	0	1	1	0	0	1	1	0	0	1	1	0	0	1	1	0	0	1	1
19	1	1	1	1	1	1	1	1	1	1	1	1	1	1	1	1	1	1	1	1	1	1	1	1	1	1	1	1	1	1	1	1	1	1	1	1	1	1	1	1	1	1	1	1	1	1	1	1	1	1	1	1	1	1	1	1	1	1	1	1	1	1	1	1
20	0	1	0	1	0	1	0	1	0	1	0	1	0	1	0	1	0	1	0	1	0	1	0	1	0	1	0	1	0	1	0	1	0	1	0	1	0	1	0	1	0	1	0	1	0	1	0	1	0	1	0	1	0	1	0	1	0	1	0	1	0	1	0	1
21	0	1	0	1	0	1	0	1	0	1	0	1	0	1	0	1	0	1	0	1	0	1	0	1	0	1	0	1	0	1	0	1	0	1	0	1	0	1	0	1	0	1	0	1	0	1	0	1	0	1	0	1	0	1	0	1	0	1	0	1	0	1	0	1;


# subtractive time (seconds) for machining features only

let ST[1,1] := 10; 
let ST[2,1] := 8;  
let ST[3,1] := 6; 

 

# additive time (seconds) for additive features only
let A[4,1] := 24;  
let A[5,1] := 12;
let A[6,1] := 12;

let A[7,1] := 24; 
let A[8,1] := 12;  
let A[9,1] := 12;
 
let A[10,1] := 16; 
let A[11,1] := 8; 
let A[12,1] := 8; 

let A[13,1] := 16; 
let A[14,1] := 8; 
let A[15,1] := 8; 

let A[16,1] := 16;
let A[17,1] := 8;
let A[18,1] := 8;
 
let A[19,1] := 16;
let A[20,1] := 8;  
let A[21,1] := 8;   


# clamping time (seconds)
# for {p in P} let CT[p]:= 10;

# tool change time (seconds)
let L := 5;

# material change time (seconds)
let H := 6;


# feature accessibility data


# post processing time
let PP[5] := 10; 
let PP[8] := 10; 
let PP[11] := 5; 
let PP[14] := 5; 
let PP[17] := 5; 
let PP[20] := 5; 

# postprocessing operations
let PO[5,1] := 1; 
let PO[8,1] := 1; 
let PO[11,1] := 1; 
let PO[14,1] := 1; 
let PO[17,1] := 1; 
let PO[20,1] := 1; 


# inspection time


# cooling time
let U[4] := 20;
let U[7] := 20;
let U[10] := 10;
let U[13] := 10;
let U[16] := 10;
let U[19] := 10;


# cooling Sate data
let CS[4]:=1;
let CS[7]:=1;
let CS[10] := 1;
let CS[13] := 1;
let CS[16] := 1;
let CS[19] := 1;


# cutting tool data
let MT[1, 1] := 1;
let MT[2, 2] := 1;
let MT[3, 2] := 1;


# build material data;
let BM[4, 1] := 1;
let BM[5, 1] := 1;
let BM[6, 1] := 1;
let BM[7, 1] := 1;
let BM[8, 1] := 1;
let BM[9, 1] := 1;
let BM[10, 1] := 2;
let BM[11, 1] := 2;
let BM[12, 1] := 2;
let BM[13, 1] := 2;
let BM[14, 1] := 2;
let BM[15, 1] := 2;
let BM[16, 1] := 2;
let BM[15, 1] := 2;
let BM[17, 1] := 2;
let BM[18, 1] := 2;
let BM[19, 1] := 2;
let BM[20, 1] := 2;
let BM[21, 1] := 2;


# support material


for{n in N} let C_n_P[n]:= precision(Uniform(1,3),0);
for{n in N} let C_n_A[n]:= precision(Uniform(8,12),0);
for{n in N} let C_n_R[n]:= precision(Uniform(4,7),0);

let C_Subtractive := 0.5; let C_Additive := 0.4; let C_Removal := 0.5;
let C_Cooling := 0.8; let C_Postprocessing := 0.5; let C_Inspection := 0.9;
let C_Tool_change := 0.3; let C_Material_change := 0.3; let C_Setup := 0.3;






